NAME:  test1
TYPE: AGTSP
COMMENT: gtsp tours
DIMENSION:  73
GTSP_SETS: 19
EDGE_WEIGHT_TYPE: EXPLICIT
EDGE_WEIGHT_FORMAT: FULL_MATRIX 
EDGE_WEIGHT_SECTION
999999	0	999999	999999	46580	46580	46580	46572	46587	46587	46587	46579	46577	46577	46577	46569	46582	46582	46582	46574	46583	46583	46583	46575	46566	46566	46558	999999	46588	46588	46588	46580	46583	46583	46583	46575	46571	46571	46563	999999	46575	46575	46567	999999	46572	46572	46564	999999	46570	46570	46562	999999	46565	46565	46557	999999	46595	46595	46595	46587	46565	46565	46557	999999	46578	46578	46578	46570	46585
999999	999999	0	999999	46580	46580	46580	999999	46587	46587	46587	999999	46577	46577	46577	999999	46582	46582	46582	999999	46583	46583	46583	999999	46566	46566	46566	46558	46588	46588	46588	999999	46583	46583	46583	999999	46571	46571	46571	46563	46575	46575	46575	46567	46572	46572	46572	46564	46570	46570	46570	46562	46565	46565	46565	46557	46595	46595	46595	999999	46565	46565	46565	46557	46578	46578	46578	999999	46585
999999	999999	999999	0	46580	46580	46580	46580	46587	46587	46587	46587	46577	46577	46577	46577	46582	46582	46582	46582	46583	46583	46583	46583	46566	46566	46566	46566	46588	46588	46588	46588	46583	46583	46583	46583	46571	46571	46571	46571	46575	46575	46575	46575	46572	46572	46572	46572	46570	46570	46570	46570	46565	46565	46565	46565	46595	46595	46595	46595	46565	46565	46565	46565	46578	46578	46578	46578	46585
0	999999	999999	999999	46580	46580	46572	999999	46587	46587	46579	999999	46577	46577	46569	999999	46582	46582	46574	999999	46583	46583	46575	999999	46566	46558	999999	999999	46588	46588	46580	999999	46583	46583	46575	999999	46571	46563	999999	999999	46575	46567	999999	999999	46572	46564	999999	999999	46570	46562	999999	999999	46565	46557	999999	999999	46595	46595	46587	999999	46565	46557	999999	999999	46578	46578	46570	999999	46585
46580	46580	46580	46572	999999	0	999999	999999	46598	46598	999999	999999	46602	46602	999999	999999	46587	46587	46587	46579	46610	46610	999999	999999	46593	46593	46593	46585	46598	46598	999999	999999	46563	46563	46555	999999	46593	46593	46593	46585	46572	46572	46564	999999	46570	46570	46562	999999	46585	46585	46585	46577	46590	46590	46590	46582	46569	46569	46561	999999	46569	46569	46561	999999	46595	46595	46595	46587	46565
46580	46580	46580	999999	999999	999999	0	999999	46598	46598	46598	999999	46602	46602	46602	999999	46587	46587	46587	999999	46610	46610	46610	999999	46593	46593	46593	999999	46598	46598	46598	999999	46563	46563	46563	46555	46593	46593	46593	999999	46572	46572	46572	46564	46570	46570	46570	46562	46585	46585	46585	999999	46590	46590	46590	999999	46569	46569	46569	46561	46569	46569	46569	46561	46595	46595	46595	999999	46565
46580	46580	46580	46580	999999	999999	999999	0	46598	46598	46598	46598	46602	46602	46602	46602	46587	46587	46587	46587	46610	46610	46610	46610	46593	46593	46593	46593	46598	46598	46598	46598	46563	46563	46563	46563	46593	46593	46593	46593	46572	46572	46572	46572	46570	46570	46570	46570	46585	46585	46585	46585	46590	46590	46590	46590	46569	46569	46569	46569	46569	46569	46569	46569	46595	46595	46595	46595	46565
46580	46580	46572	999999	0	999999	999999	999999	46598	46598	46598	46590	46602	46602	46602	46594	46587	46587	46579	999999	46610	46610	46610	46602	46593	46593	46585	999999	46598	46598	46598	46590	46563	46555	999999	999999	46593	46593	46585	999999	46572	46564	999999	999999	46570	46562	999999	999999	46585	46585	46577	999999	46590	46590	46582	999999	46569	46561	999999	999999	46569	46561	999999	999999	46595	46595	46587	999999	46565
46587	46587	46587	46579	46598	46598	999999	999999	999999	0	999999	999999	46602	46602	999999	999999	46615	46615	999999	999999	46601	46601	999999	999999	46586	46586	46586	46578	46622	46622	999999	999999	46592	46592	46592	46584	46575	46575	46567	999999	46580	46580	46580	46572	46601	46601	999999	999999	46604	46604	999999	999999	46594	46594	46594	46586	46606	46606	999999	999999	46591	46591	46591	46583	46566	46566	46558	999999	46592
46587	46587	46587	999999	46598	46598	46598	999999	999999	999999	0	999999	46602	46602	46602	999999	46615	46615	46615	999999	46601	46601	46601	999999	46586	46586	46586	999999	46622	46622	46622	999999	46592	46592	46592	999999	46575	46575	46575	46567	46580	46580	46580	999999	46601	46601	46601	999999	46604	46604	46604	999999	46594	46594	46594	999999	46606	46606	46606	999999	46591	46591	46591	999999	46566	46566	46566	46558	46592
46587	46587	46587	46587	46598	46598	46598	46598	999999	999999	999999	0	46602	46602	46602	46602	46615	46615	46615	46615	46601	46601	46601	46601	46586	46586	46586	46586	46622	46622	46622	46622	46592	46592	46592	46592	46575	46575	46575	46575	46580	46580	46580	46580	46601	46601	46601	46601	46604	46604	46604	46604	46594	46594	46594	46594	46606	46606	46606	46606	46591	46591	46591	46591	46566	46566	46566	46566	46592
46587	46587	46579	999999	46598	46598	46598	46590	0	999999	999999	999999	46602	46602	46602	46594	46615	46615	46615	46607	46601	46601	46601	46593	46586	46586	46578	999999	46622	999999	999999	999999	46592	46592	46584	999999	46575	46567	999999	999999	46580	46580	46572	999999	46601	46601	46601	46593	46604	46604	46604	46596	46594	46594	46586	999999	46606	46606	46606	46598	46591	46591	46583	999999	46566	46558	999999	999999	46592
46577	46577	46577	46569	46602	46602	999999	999999	46602	46602	999999	999999	999999	0	999999	999999	46586	46586	46586	46578	46564	46564	46556	999999	46570	46570	46562	999999	46584	46584	46584	46576	46607	46607	999999	999999	46581	46581	46581	46573	46598	46598	999999	999999	46589	46589	46589	46581	46575	46575	46575	46567	46566	46566	46558	999999	46618	46618	999999	999999	46587	46587	46587	46579	46590	46590	46590	46582	46608
46577	46577	46577	999999	46602	46602	46602	999999	46602	46602	46602	999999	999999	999999	0	999999	46586	46586	46586	999999	46564	46564	46564	46556	46570	46570	46570	46562	46584	46584	46584	999999	46607	46607	46607	999999	46581	46581	46581	999999	46598	46598	46598	999999	46589	46589	46589	999999	46575	46575	46575	999999	46566	46566	46566	46558	46618	46618	46618	999999	46587	46587	46587	999999	46590	46590	46590	999999	46608
46577	46577	46577	46577	46602	46602	46602	46602	46602	46602	46602	46602	999999	999999	999999	0	46586	46586	46586	46586	46564	46564	46564	46564	46570	46570	46570	46570	46584	46584	46584	46584	46607	46607	46607	46607	46581	46581	46581	46581	46598	46598	46598	46598	46589	46589	46589	46589	46575	46575	46575	46575	46566	46566	46566	46566	46618	46618	46618	46618	46587	46587	46587	46587	46590	46590	46590	46590	46608
46577	46577	46569	999999	46602	46602	46602	46594	46602	46602	46602	46594	0	999999	999999	999999	46586	46586	46578	999999	46564	46556	999999	999999	46570	46562	999999	999999	46584	46584	46576	999999	46607	46607	46607	46599	46581	46581	46573	999999	46598	46598	46598	46590	46589	46589	46581	999999	46575	46575	46567	999999	46566	46558	999999	999999	46618	999999	999999	999999	46587	46587	46579	999999	46590	46590	46582	999999	46608
46582	46582	46582	46574	46587	46587	46587	46579	46615	46615	999999	999999	46586	46586	46586	46578	999999	0	999999	999999	46597	46597	999999	999999	46590	46590	46590	46582	46566	46566	46558	999999	46595	46595	46595	46587	46599	46599	999999	999999	46596	46596	46596	46588	46571	46571	46563	999999	46567	46567	46559	999999	46581	46581	46581	46573	46600	46600	999999	999999	46580	46580	46580	46572	46606	46606	999999	999999	46598
46582	46582	46582	999999	46587	46587	46587	999999	46615	46615	46615	999999	46586	46586	46586	999999	999999	999999	0	999999	46597	46597	46597	999999	46590	46590	46590	999999	46566	46566	46566	46558	46595	46595	46595	999999	46599	46599	46599	999999	46596	46596	46596	999999	46571	46571	46571	46563	46567	46567	46567	46559	46581	46581	46581	999999	46600	46600	46600	999999	46580	46580	46580	999999	46606	46606	46606	999999	46598
46582	46582	46582	46582	46587	46587	46587	46587	46615	46615	46615	46615	46586	46586	46586	46586	999999	999999	999999	0	46597	46597	46597	46597	46590	46590	46590	46590	46566	46566	46566	46566	46595	46595	46595	46595	46599	46599	46599	46599	46596	46596	46596	46596	46571	46571	46571	46571	46567	46567	46567	46567	46581	46581	46581	46581	46600	46600	46600	46600	46580	46580	46580	46580	46606	46606	46606	46606	46598
46582	46582	46574	999999	46587	46587	46579	999999	46615	46615	46615	46607	46586	46586	46578	999999	0	999999	999999	999999	46597	46597	46597	46589	46590	46590	46582	999999	46566	46558	999999	999999	46595	46595	46587	999999	46599	46599	46599	46591	46596	46596	46588	999999	46571	46563	999999	999999	46567	46559	999999	999999	46581	46581	46573	999999	46600	46600	46600	46592	46580	46580	46572	999999	46606	46606	46606	46598	46598
46583	46583	46583	46575	46610	46610	999999	999999	46601	46601	999999	999999	46564	46564	46556	999999	46597	46597	999999	999999	999999	0	999999	999999	46572	46572	46564	999999	46595	46595	46595	46587	46613	46613	999999	999999	46581	46581	46581	46573	46602	46602	999999	999999	46598	46598	999999	999999	46585	46585	46585	46577	46573	46573	46565	999999	46625	46625	999999	999999	46594	46594	46594	46586	46588	46588	46588	46580	46614
46583	46583	46583	999999	46610	46610	46610	999999	46601	46601	46601	999999	46564	46564	46564	46556	46597	46597	46597	999999	999999	999999	0	999999	46572	46572	46572	46564	46595	46595	46595	999999	46613	46613	46613	999999	46581	46581	46581	999999	46602	46602	46602	999999	46598	46598	46598	999999	46585	46585	46585	999999	46573	46573	46573	46565	46625	46625	46625	999999	46594	46594	46594	999999	46588	46588	46588	999999	46614
46583	46583	46583	46583	46610	46610	46610	46610	46601	46601	46601	46601	46564	46564	46564	46564	46597	46597	46597	46597	999999	999999	999999	0	46572	46572	46572	46572	46595	46595	46595	46595	46613	46613	46613	46613	46581	46581	46581	46581	46602	46602	46602	46602	46598	46598	46598	46598	46585	46585	46585	46585	46573	46573	46573	46573	46625	46625	46625	46625	46594	46594	46594	46594	46588	46588	46588	46588	46614
46583	46583	46575	999999	46610	46610	46610	46602	46601	46601	46601	46593	46564	46556	999999	999999	46597	46597	46597	46589	0	999999	999999	999999	46572	46564	999999	999999	46595	46595	46587	999999	46613	46613	46613	46605	46581	46581	46573	999999	46602	46602	46602	46594	46598	46598	46598	46590	46585	46585	46577	999999	46573	46565	999999	999999	46625	999999	999999	999999	46594	46594	46586	999999	46588	46588	46580	999999	46614
46566	46566	46558	999999	46593	46593	46593	46585	46586	46586	46586	46578	46570	46570	46562	999999	46590	46590	46590	46582	46572	46572	46564	999999	999999	0	999999	999999	46593	46593	46593	46585	46595	46595	46595	46587	46565	46565	46557	999999	46583	46583	46583	46575	46584	46584	46584	46576	46576	46576	46576	46568	46563	46563	46555	999999	46607	46607	999999	999999	46577	46577	46577	46569	46574	46574	46566	999999	46596
46566	46566	46566	46558	46593	46593	46593	999999	46586	46586	46586	999999	46570	46570	46570	46562	46590	46590	46590	999999	46572	46572	46572	46564	999999	999999	0	999999	46593	46593	46593	999999	46595	46595	46595	999999	46565	46565	46565	46557	46583	46583	46583	999999	46584	46584	46584	999999	46576	46576	46576	999999	46563	46563	46563	46555	46607	46607	46607	999999	46577	46577	46577	999999	46574	46574	46574	46566	46596
46566	46566	46566	46566	46593	46593	46593	46593	46586	46586	46586	46586	46570	46570	46570	46570	46590	46590	46590	46590	46572	46572	46572	46572	999999	999999	999999	0	46593	46593	46593	46593	46595	46595	46595	46595	46565	46565	46565	46565	46583	46583	46583	46583	46584	46584	46584	46584	46576	46576	46576	46576	46563	46563	46563	46563	46607	46607	46607	46607	46577	46577	46577	46577	46574	46574	46574	46574	46596
46566	46558	999999	999999	46593	46593	46585	999999	46586	46586	46578	999999	46570	46562	999999	999999	46590	46590	46582	999999	46572	46564	999999	999999	0	999999	999999	999999	46593	46593	46585	999999	46595	46595	46587	999999	46565	46557	999999	999999	46583	46583	46575	999999	46584	46584	46576	999999	46576	46576	46568	999999	46563	46555	999999	999999	46607	46607	46607	46599	46577	46577	46569	999999	46574	46566	999999	999999	46596
46588	46588	46588	46580	46598	46598	999999	999999	46622	46622	999999	999999	46584	46584	46584	46576	46566	46566	46558	999999	46595	46595	46595	46587	46593	46593	46593	46585	999999	0	999999	999999	46607	46607	999999	999999	46603	46603	999999	999999	46605	46605	999999	999999	46583	46583	46583	46575	46572	46572	46564	999999	46583	46583	46583	46575	46612	46612	999999	999999	46590	46590	46590	46582	46611	46611	999999	999999	46609
46588	46588	46588	999999	46598	46598	46598	999999	46622	46622	46622	999999	46584	46584	46584	999999	46566	46566	46566	46558	46595	46595	46595	999999	46593	46593	46593	999999	999999	999999	0	999999	46607	46607	46607	999999	46603	46603	46603	999999	46605	46605	46605	999999	46583	46583	46583	999999	46572	46572	46572	46564	46583	46583	46583	999999	46612	46612	46612	999999	46590	46590	46590	999999	46611	46611	46611	999999	46609
46588	46588	46588	46588	46598	46598	46598	46598	46622	46622	46622	46622	46584	46584	46584	46584	46566	46566	46566	46566	46595	46595	46595	46595	46593	46593	46593	46593	999999	999999	999999	0	46607	46607	46607	46607	46603	46603	46603	46603	46605	46605	46605	46605	46583	46583	46583	46583	46572	46572	46572	46572	46583	46583	46583	46583	46612	46612	46612	46612	46590	46590	46590	46590	46611	46611	46611	46611	46609
46588	46588	46580	999999	46598	46598	46598	46590	46622	999999	999999	999999	46584	46584	46576	999999	46566	46558	999999	999999	46595	46595	46587	999999	46593	46593	46585	999999	0	999999	999999	999999	46607	46607	46607	46599	46603	46603	46603	46595	46605	46605	46605	46597	46583	46583	46575	999999	46572	46564	999999	999999	46583	46583	46575	999999	46612	46612	46612	46604	46590	46590	46582	999999	46611	46611	46611	46603	46609
46583	46583	46583	46575	46563	46563	46555	999999	46592	46592	46592	46584	46607	46607	999999	999999	46595	46595	46595	46587	46613	46613	999999	999999	46595	46595	46595	46587	46607	46607	999999	999999	999999	0	999999	999999	46592	46592	46592	46584	46567	46567	46559	999999	46578	46578	46578	46570	46592	46592	46592	46584	46595	46595	46595	46587	46567	46567	46559	999999	46573	46573	46565	999999	46592	46592	46592	46584	46556
46583	46583	46583	999999	46563	46563	46563	46555	46592	46592	46592	999999	46607	46607	46607	999999	46595	46595	46595	999999	46613	46613	46613	999999	46595	46595	46595	999999	46607	46607	46607	999999	999999	999999	0	999999	46592	46592	46592	999999	46567	46567	46567	46559	46578	46578	46578	999999	46592	46592	46592	999999	46595	46595	46595	999999	46567	46567	46567	46559	46573	46573	46573	46565	46592	46592	46592	999999	46556
46583	46583	46583	46583	46563	46563	46563	46563	46592	46592	46592	46592	46607	46607	46607	46607	46595	46595	46595	46595	46613	46613	46613	46613	46595	46595	46595	46595	46607	46607	46607	46607	999999	999999	999999	0	46592	46592	46592	46592	46567	46567	46567	46567	46578	46578	46578	46578	46592	46592	46592	46592	46595	46595	46595	46595	46567	46567	46567	46567	46573	46573	46573	46573	46592	46592	46592	46592	46556
46583	46583	46575	999999	46563	46555	999999	999999	46592	46592	46584	999999	46607	46607	46607	46599	46595	46595	46587	999999	46613	46613	46613	46605	46595	46595	46587	999999	46607	46607	46607	46599	0	999999	999999	999999	46592	46592	46584	999999	46567	46559	999999	999999	46578	46578	46570	999999	46592	46592	46584	999999	46595	46595	46587	999999	46567	46559	999999	999999	46573	46565	999999	999999	46592	46592	46584	999999	46556
46571	46571	46563	999999	46593	46593	46593	46585	46575	46575	46567	999999	46581	46581	46581	46573	46599	46599	999999	999999	46581	46581	46581	46573	46565	46565	46557	999999	46603	46603	999999	999999	46592	46592	46592	46584	999999	0	999999	999999	46579	46579	46579	46571	46588	46588	46588	46580	46586	46586	46586	46578	46574	46574	46566	999999	46606	46606	999999	999999	46580	46580	46580	46572	46562	46562	46554	999999	46593
46571	46571	46571	46563	46593	46593	46593	999999	46575	46575	46575	46567	46581	46581	46581	999999	46599	46599	46599	999999	46581	46581	46581	999999	46565	46565	46565	46557	46603	46603	46603	999999	46592	46592	46592	999999	999999	999999	0	999999	46579	46579	46579	999999	46588	46588	46588	999999	46586	46586	46586	999999	46574	46574	46574	46566	46606	46606	46606	999999	46580	46580	46580	999999	46562	46562	46562	46554	46593
46571	46571	46571	46571	46593	46593	46593	46593	46575	46575	46575	46575	46581	46581	46581	46581	46599	46599	46599	46599	46581	46581	46581	46581	46565	46565	46565	46565	46603	46603	46603	46603	46592	46592	46592	46592	999999	999999	999999	0	46579	46579	46579	46579	46588	46588	46588	46588	46586	46586	46586	46586	46574	46574	46574	46574	46606	46606	46606	46606	46580	46580	46580	46580	46562	46562	46562	46562	46593
46571	46563	999999	999999	46593	46593	46585	999999	46575	46567	999999	999999	46581	46581	46573	999999	46599	46599	46599	46591	46581	46581	46573	999999	46565	46557	999999	999999	46603	46603	46603	46595	46592	46592	46584	999999	0	999999	999999	999999	46579	46579	46571	999999	46588	46588	46580	999999	46586	46586	46578	999999	46574	46566	999999	999999	46606	46606	46606	46598	46580	46580	46572	999999	46562	46554	999999	999999	46593
46575	46575	46567	999999	46572	46572	46564	999999	46580	46580	46580	46572	46598	46598	999999	999999	46596	46596	46596	46588	46602	46602	999999	999999	46583	46583	46583	46575	46605	46605	999999	999999	46567	46567	46559	999999	46579	46579	46579	46571	999999	0	999999	999999	46578	46578	46578	46570	46588	46588	46588	46580	46586	46586	46586	46578	46581	46581	46581	46573	46569	46569	46561	999999	46578	46578	46578	46570	46567
46575	46575	46575	46567	46572	46572	46572	46564	46580	46580	46580	999999	46598	46598	46598	999999	46596	46596	46596	999999	46602	46602	46602	999999	46583	46583	46583	999999	46605	46605	46605	999999	46567	46567	46567	46559	46579	46579	46579	999999	999999	999999	0	999999	46578	46578	46578	999999	46588	46588	46588	999999	46586	46586	46586	999999	46581	46581	46581	999999	46569	46569	46569	46561	46578	46578	46578	999999	46567
46575	46575	46575	46575	46572	46572	46572	46572	46580	46580	46580	46580	46598	46598	46598	46598	46596	46596	46596	46596	46602	46602	46602	46602	46583	46583	46583	46583	46605	46605	46605	46605	46567	46567	46567	46567	46579	46579	46579	46579	999999	999999	999999	0	46578	46578	46578	46578	46588	46588	46588	46588	46586	46586	46586	46586	46581	46581	46581	46581	46569	46569	46569	46569	46578	46578	46578	46578	46567
46575	46567	999999	999999	46572	46564	999999	999999	46580	46580	46572	999999	46598	46598	46598	46590	46596	46596	46588	999999	46602	46602	46602	46594	46583	46583	46575	999999	46605	46605	46605	46597	46567	46559	999999	999999	46579	46579	46571	999999	0	999999	999999	999999	46578	46578	46570	999999	46588	46588	46580	999999	46586	46586	46578	999999	46581	46581	46573	999999	46569	46561	999999	999999	46578	46578	46570	999999	46567
46572	46572	46564	999999	46570	46570	46562	999999	46601	46601	999999	999999	46589	46589	46589	46581	46571	46571	46563	999999	46598	46598	999999	999999	46584	46584	46584	46576	46583	46583	46583	46575	46578	46578	46578	46570	46588	46588	46588	46580	46578	46578	46578	46570	999999	0	999999	999999	46569	46569	46561	999999	46578	46578	46578	46570	46584	46584	46584	46576	46564	46564	46556	999999	46594	46594	46594	46586	46580
46572	46572	46572	46564	46570	46570	46570	46562	46601	46601	46601	999999	46589	46589	46589	999999	46571	46571	46571	46563	46598	46598	46598	999999	46584	46584	46584	999999	46583	46583	46583	999999	46578	46578	46578	999999	46588	46588	46588	999999	46578	46578	46578	999999	999999	999999	0	999999	46569	46569	46569	46561	46578	46578	46578	999999	46584	46584	46584	999999	46564	46564	46564	46556	46594	46594	46594	999999	46580
46572	46572	46572	46572	46570	46570	46570	46570	46601	46601	46601	46601	46589	46589	46589	46589	46571	46571	46571	46571	46598	46598	46598	46598	46584	46584	46584	46584	46583	46583	46583	46583	46578	46578	46578	46578	46588	46588	46588	46588	46578	46578	46578	46578	999999	999999	999999	0	46569	46569	46569	46569	46578	46578	46578	46578	46584	46584	46584	46584	46564	46564	46564	46564	46594	46594	46594	46594	46580
46572	46564	999999	999999	46570	46562	999999	999999	46601	46601	46601	46593	46589	46589	46581	999999	46571	46563	999999	999999	46598	46598	46598	46590	46584	46584	46576	999999	46583	46583	46575	999999	46578	46578	46570	999999	46588	46588	46580	999999	46578	46578	46570	999999	0	999999	999999	999999	46569	46561	999999	999999	46578	46578	46570	999999	46584	46584	46576	999999	46564	46556	999999	999999	46594	46594	46586	999999	46580
46570	46570	46562	999999	46585	46585	46585	46577	46604	46604	999999	999999	46575	46575	46575	46567	46567	46567	46559	999999	46585	46585	46585	46577	46576	46576	46576	46568	46572	46572	46564	999999	46592	46592	46592	46584	46586	46586	46586	46578	46588	46588	46588	46580	46569	46569	46561	999999	999999	0	999999	999999	46567	46567	46559	999999	46600	46600	999999	999999	46573	46573	46565	999999	46593	46593	46593	46585	46594
46570	46570	46570	46562	46585	46585	46585	999999	46604	46604	46604	999999	46575	46575	46575	999999	46567	46567	46567	46559	46585	46585	46585	999999	46576	46576	46576	999999	46572	46572	46572	46564	46592	46592	46592	999999	46586	46586	46586	999999	46588	46588	46588	999999	46569	46569	46569	46561	999999	999999	0	999999	46567	46567	46567	46559	46600	46600	46600	999999	46573	46573	46573	46565	46593	46593	46593	999999	46594
46570	46570	46570	46570	46585	46585	46585	46585	46604	46604	46604	46604	46575	46575	46575	46575	46567	46567	46567	46567	46585	46585	46585	46585	46576	46576	46576	46576	46572	46572	46572	46572	46592	46592	46592	46592	46586	46586	46586	46586	46588	46588	46588	46588	46569	46569	46569	46569	999999	999999	999999	0	46567	46567	46567	46567	46600	46600	46600	46600	46573	46573	46573	46573	46593	46593	46593	46593	46594
46570	46562	999999	999999	46585	46585	46577	999999	46604	46604	46604	46596	46575	46575	46567	999999	46567	46559	999999	999999	46585	46585	46577	999999	46576	46576	46568	999999	46572	46564	999999	999999	46592	46592	46584	999999	46586	46586	46578	999999	46588	46588	46580	999999	46569	46561	999999	999999	0	999999	999999	999999	46567	46559	999999	999999	46600	46600	46600	46592	46573	46565	999999	999999	46593	46593	46585	999999	46594
46565	46565	46557	999999	46590	46590	46590	46582	46594	46594	46594	46586	46566	46566	46558	999999	46581	46581	46581	46573	46573	46573	46565	999999	46563	46563	46555	999999	46583	46583	46583	46575	46595	46595	46595	46587	46574	46574	46566	999999	46586	46586	46586	46578	46578	46578	46578	46570	46567	46567	46559	999999	999999	0	999999	999999	46606	46606	999999	999999	46575	46575	46575	46567	46583	46583	46583	46575	46596
46565	46565	46565	46557	46590	46590	46590	999999	46594	46594	46594	999999	46566	46566	46566	46558	46581	46581	46581	999999	46573	46573	46573	46565	46563	46563	46563	46555	46583	46583	46583	999999	46595	46595	46595	999999	46574	46574	46574	46566	46586	46586	46586	999999	46578	46578	46578	999999	46567	46567	46567	46559	999999	999999	0	999999	46606	46606	46606	999999	46575	46575	46575	999999	46583	46583	46583	999999	46596
46565	46565	46565	46565	46590	46590	46590	46590	46594	46594	46594	46594	46566	46566	46566	46566	46581	46581	46581	46581	46573	46573	46573	46573	46563	46563	46563	46563	46583	46583	46583	46583	46595	46595	46595	46595	46574	46574	46574	46574	46586	46586	46586	46586	46578	46578	46578	46578	46567	46567	46567	46567	999999	999999	999999	0	46606	46606	46606	46606	46575	46575	46575	46575	46583	46583	46583	46583	46596
46565	46557	999999	999999	46590	46590	46582	999999	46594	46594	46586	999999	46566	46558	999999	999999	46581	46581	46573	999999	46573	46565	999999	999999	46563	46555	999999	999999	46583	46583	46575	999999	46595	46595	46587	999999	46574	46566	999999	999999	46586	46586	46578	999999	46578	46578	46570	999999	46567	46559	999999	999999	0	999999	999999	999999	46606	46606	46606	46598	46575	46575	46567	999999	46583	46583	46575	999999	46596
46595	46595	46595	46587	46569	46569	46561	999999	46606	46606	999999	999999	46618	46618	999999	999999	46600	46600	999999	999999	46625	46625	999999	999999	46607	46607	999999	999999	46612	46612	999999	999999	46567	46567	46559	999999	46606	46606	999999	999999	46581	46581	46581	46573	46584	46584	46584	46576	46600	46600	999999	999999	46606	46606	999999	999999	999999	0	999999	999999	46584	46584	46584	46576	46606	46606	999999	999999	46568
46595	46595	46595	999999	46569	46569	46569	46561	46606	46606	46606	999999	46618	46618	46618	999999	46600	46600	46600	999999	46625	46625	46625	999999	46607	46607	46607	999999	46612	46612	46612	999999	46567	46567	46567	46559	46606	46606	46606	999999	46581	46581	46581	999999	46584	46584	46584	999999	46600	46600	46600	999999	46606	46606	46606	999999	999999	999999	0	999999	46584	46584	46584	999999	46606	46606	46606	999999	46568
46595	46595	46595	46595	46569	46569	46569	46569	46606	46606	46606	46606	46618	46618	46618	46618	46600	46600	46600	46600	46625	46625	46625	46625	46607	46607	46607	46607	46612	46612	46612	46612	46567	46567	46567	46567	46606	46606	46606	46606	46581	46581	46581	46581	46584	46584	46584	46584	46600	46600	46600	46600	46606	46606	46606	46606	999999	999999	999999	0	46584	46584	46584	46584	46606	46606	46606	46606	46568
46595	46595	46587	999999	46569	46561	999999	999999	46606	46606	46606	46598	46618	999999	999999	999999	46600	46600	46600	46592	46625	999999	999999	999999	46607	46607	46607	46599	46612	46612	46612	46604	46567	46559	999999	999999	46606	46606	46606	46598	46581	46581	46573	999999	46584	46584	46576	999999	46600	46600	46600	46592	46606	46606	46606	46598	0	999999	999999	999999	46584	46584	46576	999999	46606	46606	46606	46598	46568
46565	46565	46557	999999	46569	46569	46561	999999	46591	46591	46591	46583	46587	46587	46587	46579	46580	46580	46580	46572	46594	46594	46594	46586	46577	46577	46577	46569	46590	46590	46590	46582	46573	46573	46565	999999	46580	46580	46580	46572	46569	46569	46561	999999	46564	46564	46556	999999	46573	46573	46565	999999	46575	46575	46575	46567	46584	46584	46584	46576	999999	0	999999	999999	46584	46584	46584	46576	46575
46565	46565	46565	46557	46569	46569	46569	46561	46591	46591	46591	999999	46587	46587	46587	999999	46580	46580	46580	999999	46594	46594	46594	999999	46577	46577	46577	999999	46590	46590	46590	999999	46573	46573	46573	46565	46580	46580	46580	999999	46569	46569	46569	46561	46564	46564	46564	46556	46573	46573	46573	46565	46575	46575	46575	999999	46584	46584	46584	999999	999999	999999	0	999999	46584	46584	46584	999999	46575
46565	46565	46565	46565	46569	46569	46569	46569	46591	46591	46591	46591	46587	46587	46587	46587	46580	46580	46580	46580	46594	46594	46594	46594	46577	46577	46577	46577	46590	46590	46590	46590	46573	46573	46573	46573	46580	46580	46580	46580	46569	46569	46569	46569	46564	46564	46564	46564	46573	46573	46573	46573	46575	46575	46575	46575	46584	46584	46584	46584	999999	999999	999999	0	46584	46584	46584	46584	46575
46565	46557	999999	999999	46569	46561	999999	999999	46591	46591	46583	999999	46587	46587	46579	999999	46580	46580	46572	999999	46594	46594	46586	999999	46577	46577	46569	999999	46590	46590	46582	999999	46573	46565	999999	999999	46580	46580	46572	999999	46569	46561	999999	999999	46564	46556	999999	999999	46573	46565	999999	999999	46575	46575	46567	999999	46584	46584	46576	999999	0	999999	999999	999999	46584	46584	46576	999999	46575
46578	46578	46578	46570	46595	46595	46595	46587	46566	46566	46558	999999	46590	46590	46590	46582	46606	46606	999999	999999	46588	46588	46588	46580	46574	46574	46566	999999	46611	46611	999999	999999	46592	46592	46592	46584	46562	46562	46554	999999	46578	46578	46578	46570	46594	46594	46594	46586	46593	46593	46593	46585	46583	46583	46583	46575	46606	46606	999999	999999	46584	46584	46584	46576	999999	0	999999	999999	46592
46578	46578	46578	999999	46595	46595	46595	999999	46566	46566	46566	46558	46590	46590	46590	999999	46606	46606	46606	999999	46588	46588	46588	999999	46574	46574	46574	46566	46611	46611	46611	999999	46592	46592	46592	999999	46562	46562	46562	46554	46578	46578	46578	999999	46594	46594	46594	999999	46593	46593	46593	999999	46583	46583	46583	999999	46606	46606	46606	999999	46584	46584	46584	999999	999999	999999	0	999999	46592
46578	46578	46578	46578	46595	46595	46595	46595	46566	46566	46566	46566	46590	46590	46590	46590	46606	46606	46606	46606	46588	46588	46588	46588	46574	46574	46574	46574	46611	46611	46611	46611	46592	46592	46592	46592	46562	46562	46562	46562	46578	46578	46578	46578	46594	46594	46594	46594	46593	46593	46593	46593	46583	46583	46583	46583	46606	46606	46606	46606	46584	46584	46584	46584	999999	999999	999999	0	46592
46578	46578	46570	999999	46595	46595	46587	999999	46566	46558	999999	999999	46590	46590	46582	999999	46606	46606	46606	46598	46588	46588	46580	999999	46574	46566	999999	999999	46611	46611	46611	46603	46592	46592	46584	999999	46562	46554	999999	999999	46578	46578	46570	999999	46594	46594	46586	999999	46593	46593	46585	999999	46583	46583	46575	999999	46606	46606	46606	46598	46584	46584	46576	999999	0	999999	999999	999999	46592
46585	46585	46585	46577	46565	46565	46557	999999	46592	46592	46592	46584	46608	46608	999999	999999	46598	46598	999999	999999	46614	46614	999999	999999	46596	46596	46596	46588	46609	46609	999999	999999	46556	46556	46548	999999	46593	46593	46593	46585	46567	46567	46559	999999	46580	46580	46580	46572	46594	46594	46594	46586	46596	46596	999999	999999	46568	46568	46560	999999	46575	46575	46575	46567	46592	46592	46592	46584	999999
GTSP_SET_SECTION:
1 1 2 3 4 -1
2 5 6 7 8 -1
3 9 10 11 12 -1
4 13 14 15 16 -1
5 17 18 19 20 -1
6 21 22 23 24 -1
7 25 26 27 28 -1
8 29 30 31 32 -1
9 33 34 35 36 -1
10 37 38 39 40 -1
11 41 42 43 44 -1
12 45 46 47 48 -1
13 49 50 51 52 -1
14 53 54 55 56 -1
15 57 58 59 60 -1
16 61 62 63 64 -1
17 65 66 67 68 -1
18 69 70 71 72-1
19 73 -1
EOF